DIMENSION: 10
NODE_COORD_SECTION
1 191.4219919401 317.2106824926
2 -192.6711668274 253.6782538399
3 383.2402234637 -246.1538461538
4 -4884.1269841270 -426.6159695817
5 -481.9221967963 6.4638783270
6 309.4107299912 -306.1565523307
7 448.4396200814 -337.8188214600
8 -589.3249607535 -106.2751871042
9 -2030.0613496933 1025.1533742331
10 -289.0083632019 -303.6059806508
EOF